words_hard_train/8778.qaiger
aag 114 13 0 1 101
2
4
8
16
26
36
52
94
122
130
160
168
198
228
6 2 4
10 4 8
12 5 9
14 11 13
18 15 17
20 6 19
22 14 16
24 21 23
28 13 26
30 12 27
32 29 31
34 24 33
38 31 36
40 30 37
42 39 41
44 35 42
46 34 43
48 45 47
50 48 26
54 12 53
56 54 27
58 51 57
60 49 27
62 25 32
64 63 35
66 64 8
68 19 23
70 69 3
72 71 7
74 3 4
76 75 53
78 76 69
80 73 79
82 65 9
84 80 83
86 67 85
88 87 55
90 61 88
92 58 91
96 41 94
98 40 95
100 97 99
102 47 100
104 46 101
106 103 105
108 57 36
110 56 37
112 109 111
114 107 112
116 93 115
118 106 113
120 117 119
124 99 122
126 98 123
128 125 127
132 129 131
134 128 130
136 133 135
138 104 137
140 105 136
142 139 141
144 111 94
146 110 95
148 145 147
150 142 148
152 121 151
154 143 149
156 153 155
158 141 135
162 126 160
164 127 161
166 163 165
170 166 169
172 167 168
174 171 173
176 158 175
178 159 174
180 177 179
182 147 122
184 146 123
186 183 185
188 180 186
190 157 189
192 181 187
194 191 193
196 194 160
200 165 198
202 164 199
204 201 203
206 179 173
208 204 207
210 205 206
212 209 211
214 212 184
216 197 215
218 195 161
220 213 185
222 219 221
224 216 223
226 196 214
228 225 227
i0 2 y2[0]
i1 1 x2[1]
i2 1 x2[2]
i3 2 y2[1]
i4 1 x2[3]
i5 1 x2[4]
i6 1 x2[0]
i7 1 x2[5]
i8 1 x2[6]
i9 2 y2[5]
i10 1 x2[7]
i11 2 y2[6]
i12 2 y2[7]
o0 bv[0]
c
simplified
  <=
    1 x2
    subtract
      or
        -228
        2 y2
      >> 1
        1 x2
