words_hard_train/8778.qaiger.qdimacs
p cnf 114 304
a 2 4 13 47 80 18 26 61 0
e 1 3 5 6 7 8 9 10 11 12 14 15 16 17 19 20 21 22 23 24 25 27 28 29 30 31 32 33 34 35 36 37 38 39 40 41 42 43 44 45 46 48 49 50 51 52 53 54 55 56 57 58 59 60 62 63 64 65 66 67 68 69 70 71 72 73 74 75 76 77 78 79 81 82 83 84 85 86 87 88 89 90 91 92 93 94 95 96 97 98 99 100 101 102 103 104 105 106 107 108 109 110 111 112 113 114 0
-1 -2 3 0
1 -3 0
2 -3 0
-2 -4 5 0
2 -5 0
4 -5 0
2 4 6 0
-2 -6 0
-4 -6 0
5 6 7 0
-5 -7 0
-6 -7 0
7 8 9 0
-7 -9 0
-8 -9 0
-3 9 10 0
3 -10 0
-9 -10 0
-7 -8 11 0
7 -11 0
8 -11 0
10 11 12 0
-10 -12 0
-11 -12 0
6 -13 14 0
-6 -14 0
13 -14 0
-6 13 15 0
6 -15 0
-13 -15 0
14 15 16 0
-14 -16 0
-15 -16 0
-12 16 17 0
12 -17 0
-16 -17 0
15 -18 19 0
-15 -19 0
18 -19 0
-15 18 20 0
15 -20 0
-18 -20 0
19 20 21 0
-19 -21 0
-20 -21 0
17 -21 22 0
-17 -22 0
21 -22 0
-17 21 23 0
17 -23 0
-21 -23 0
22 23 24 0
-22 -24 0
-23 -24 0
-24 -13 25 0
24 -25 0
13 -25 0
-6 26 27 0
6 -27 0
-26 -27 0
-27 13 28 0
27 -28 0
-13 -28 0
25 28 29 0
-25 -29 0
-28 -29 0
24 13 30 0
-24 -30 0
-13 -30 0
12 -16 31 0
-12 -31 0
16 -31 0
31 17 32 0
-31 -32 0
-17 -32 0
-32 -4 33 0
32 -33 0
4 -33 0
9 11 34 0
-9 -34 0
-11 -34 0
34 1 35 0
-34 -35 0
-1 -35 0
35 3 36 0
-35 -36 0
-3 -36 0
1 -2 37 0
-1 -37 0
2 -37 0
37 26 38 0
-37 -38 0
-26 -38 0
-38 34 39 0
38 -39 0
-34 -39 0
36 39 40 0
-36 -40 0
-39 -40 0
32 4 41 0
-32 -41 0
-4 -41 0
-40 41 42 0
40 -42 0
-41 -42 0
33 42 43 0
-33 -43 0
-42 -43 0
43 27 44 0
-43 -44 0
-27 -44 0
30 -44 45 0
-30 -45 0
44 -45 0
-29 45 46 0
29 -46 0
-45 -46 0
20 -47 48 0
-20 -48 0
47 -48 0
-20 47 49 0
20 -49 0
-47 -49 0
48 49 50 0
-48 -50 0
-49 -50 0
23 -50 51 0
-23 -51 0
50 -51 0
-23 50 52 0
23 -52 0
-50 -52 0
51 52 53 0
-51 -53 0
-52 -53 0
28 -18 54 0
-28 -54 0
18 -54 0
-28 18 55 0
28 -55 0
-18 -55 0
54 55 56 0
-54 -56 0
-55 -56 0
53 -56 57 0
-53 -57 0
56 -57 0
46 57 58 0
-46 -58 0
-57 -58 0
-53 56 59 0
53 -59 0
-56 -59 0
58 59 60 0
-58 -60 0
-59 -60 0
49 -61 62 0
-49 -62 0
61 -62 0
-49 61 63 0
49 -63 0
-61 -63 0
62 63 64 0
-62 -64 0
-63 -64 0
64 65 66 0
-64 -66 0
-65 -66 0
-64 -65 67 0
64 -67 0
65 -67 0
66 67 68 0
-66 -68 0
-67 -68 0
-52 68 69 0
52 -69 0
-68 -69 0
52 -68 70 0
-52 -70 0
68 -70 0
69 70 71 0
-69 -71 0
-70 -71 0
55 -47 72 0
-55 -72 0
47 -72 0
-55 47 73 0
55 -73 0
-47 -73 0
72 73 74 0
-72 -74 0
-73 -74 0
-71 -74 75 0
71 -75 0
74 -75 0
60 75 76 0
-60 -76 0
-75 -76 0
71 74 77 0
-71 -77 0
-74 -77 0
76 77 78 0
-76 -78 0
-77 -78 0
70 67 79 0
-70 -79 0
-67 -79 0
-63 -80 81 0
63 -81 0
80 -81 0
63 80 82 0
-63 -82 0
-80 -82 0
81 82 83 0
-81 -83 0
-82 -83 0
-83 84 85 0
83 -85 0
-84 -85 0
83 -84 86 0
-83 -86 0
84 -86 0
85 86 87 0
-85 -87 0
-86 -87 0
-79 87 88 0
79 -88 0
-87 -88 0
79 -87 89 0
-79 -89 0
87 -89 0
88 89 90 0
-88 -90 0
-89 -90 0
73 -61 91 0
-73 -91 0
61 -91 0
-73 61 92 0
73 -92 0
-61 -92 0
91 92 93 0
-91 -93 0
-92 -93 0
-90 -93 94 0
90 -94 0
93 -94 0
78 94 95 0
-78 -95 0
-94 -95 0
90 93 96 0
-90 -96 0
-93 -96 0
95 96 97 0
-95 -97 0
-96 -97 0
-97 -80 98 0
97 -98 0
80 -98 0
82 -99 100 0
-82 -100 0
99 -100 0
-82 99 101 0
82 -101 0
-99 -101 0
100 101 102 0
-100 -102 0
-101 -102 0
89 86 103 0
-89 -103 0
-86 -103 0
-102 103 104 0
102 -104 0
-103 -104 0
102 -103 105 0
-102 -105 0
103 -105 0
104 105 106 0
-104 -106 0
-105 -106 0
-106 -92 107 0
106 -107 0
92 -107 0
98 107 108 0
-98 -108 0
-107 -108 0
97 80 109 0
-97 -109 0
-80 -109 0
106 92 110 0
-106 -110 0
-92 -110 0
109 110 111 0
-109 -111 0
-110 -111 0
-108 111 112 0
108 -112 0
-111 -112 0
-98 -107 113 0
98 -113 0
107 -113 0
112 113 114 0
-112 -114 0
-113 -114 0
114 0
